60
1410
7
84
46
90
70
85
88
97
0 1
0 2
0 3
0 4
0 5
0 6
0 7
0 8
0 9
0 11
0 12
0 13
0 14
0 15
0 16
0 17
0 18
0 19
0 20
0 21
0 22
0 23
0 24
0 25
0 26
0 27
0 29
0 31
0 33
0 34
0 35
0 36
0 37
0 39
0 40
0 41
0 42
0 43
0 44
0 45
0 46
0 49
0 50
0 51
0 52
0 53
0 54
0 55
0 56
0 57
1 3
1 4
1 5
1 6
1 7
1 8
1 9
1 10
1 11
1 13
1 14
1 15
1 16
1 18
1 19
1 20
1 21
1 22
1 23
1 24
1 25
1 26
1 27
1 30
1 33
1 34
1 35
1 37
1 38
1 39
1 40
1 41
1 42
1 43
1 44
1 45
1 46
1 47
1 48
1 49
1 52
1 53
1 55
1 56
1 57
1 58
1 59
2 4
2 5
2 7
2 8
2 9
2 10
2 11
2 12
2 13
2 14
2 15
2 16
2 17
2 18
2 19
2 20
2 21
2 22
2 23
2 24
2 25
2 26
2 28
2 29
2 30
2 31
2 32
2 33
2 34
2 35
2 37
2 38
2 39
2 40
2 41
2 43
2 45
2 46
2 47
2 49
2 51
2 52
2 53
2 55
2 58
2 59
3 4
3 5
3 6
3 7
3 8
3 9
3 10
3 11
3 12
3 13
3 14
3 15
3 16
3 17
3 18
3 19
3 22
3 23
3 24
3 25
3 26
3 27
3 28
3 30
3 31
3 32
3 34
3 36
3 38
3 39
3 40
3 42
3 44
3 45
3 46
3 47
3 48
3 49
3 51
3 52
3 53
3 55
3 56
3 57
3 58
3 59
4 6
4 7
4 9
4 10
4 11
4 13
4 14
4 15
4 16
4 18
4 19
4 20
4 21
4 22
4 26
4 27
4 28
4 30
4 31
4 32
4 33
4 34
4 35
4 36
4 38
4 39
4 40
4 42
4 43
4 45
4 46
4 47
4 49
4 50
4 51
4 52
4 53
4 55
4 56
4 57
4 58
4 59
5 6
5 7
5 8
5 9
5 10
5 11
5 12
5 13
5 14
5 17
5 18
5 19
5 20
5 21
5 23
5 24
5 25
5 26
5 28
5 30
5 31
5 32
5 33
5 34
5 35
5 36
5 37
5 38
5 39
5 40
5 41
5 42
5 43
5 44
5 45
5 47
5 48
5 50
5 51
5 53
5 54
5 55
5 56
5 57
5 58
5 59
6 8
6 11
6 13
6 14
6 15
6 17
6 19
6 21
6 22
6 24
6 28
6 29
6 30
6 31
6 32
6 33
6 34
6 35
6 36
6 37
6 39
6 40
6 42
6 45
6 47
6 48
6 50
6 51
6 53
6 54
6 55
6 56
6 58
6 59
7 8
7 9
7 11
7 12
7 13
7 14
7 15
7 16
7 17
7 18
7 19
7 20
7 22
7 23
7 25
7 26
7 27
7 28
7 29
7 30
7 31
7 32
7 33
7 34
7 35
7 36
7 37
7 38
7 40
7 42
7 43
7 46
7 48
7 49
7 50
7 51
7 52
7 54
7 55
7 56
7 57
7 58
7 59
8 9
8 10
8 11
8 12
8 13
8 15
8 17
8 18
8 19
8 20
8 21
8 22
8 23
8 24
8 25
8 27
8 28
8 29
8 30
8 31
8 32
8 33
8 34
8 35
8 36
8 38
8 39
8 40
8 41
8 42
8 43
8 44
8 45
8 48
8 50
8 53
8 54
8 55
8 56
8 57
8 59
9 10
9 11
9 12
9 14
9 15
9 16
9 18
9 19
9 21
9 22
9 23
9 24
9 25
9 27
9 28
9 29
9 30
9 31
9 32
9 33
9 34
9 35
9 36
9 37
9 38
9 39
9 40
9 41
9 42
9 43
9 44
9 46
9 47
9 48
9 49
9 50
9 51
9 53
9 54
9 55
9 56
9 57
9 59
10 11
10 12
10 13
10 14
10 15
10 16
10 17
10 18
10 22
10 24
10 25
10 26
10 27
10 28
10 30
10 31
10 32
10 33
10 34
10 35
10 36
10 37
10 38
10 43
10 45
10 47
10 48
10 52
10 53
10 54
10 55
10 56
10 58
10 59
11 12
11 13
11 15
11 16
11 17
11 18
11 19
11 20
11 21
11 22
11 23
11 24
11 26
11 29
11 34
11 35
11 36
11 38
11 39
11 40
11 41
11 42
11 44
11 45
11 46
11 47
11 49
11 50
11 51
11 52
11 53
11 55
11 56
11 57
11 58
11 59
12 13
12 15
12 16
12 17
12 19
12 20
12 21
12 22
12 24
12 25
12 26
12 27
12 29
12 30
12 31
12 32
12 33
12 34
12 35
12 36
12 37
12 38
12 39
12 40
12 41
12 43
12 45
12 46
12 47
12 48
12 51
12 52
12 53
12 55
12 56
12 58
12 59
13 15
13 16
13 19
13 20
13 23
13 24
13 26
13 28
13 29
13 30
13 31
13 32
13 33
13 34
13 35
13 36
13 37
13 38
13 39
13 42
13 45
13 46
13 48
13 49
13 50
13 52
13 53
13 54
13 55
13 56
13 58
14 17
14 18
14 20
14 21
14 23
14 25
14 26
14 27
14 28
14 29
14 31
14 32
14 33
14 34
14 35
14 36
14 37
14 38
14 39
14 40
14 41
14 42
14 43
14 44
14 45
14 47
14 48
14 52
14 53
14 54
14 56
14 58
14 59
15 16
15 17
15 19
15 20
15 21
15 22
15 23
15 24
15 25
15 26
15 27
15 30
15 31
15 33
15 34
15 35
15 36
15 37
15 38
15 40
15 41
15 42
15 43
15 44
15 45
15 46
15 47
15 48
15 49
15 50
15 52
15 53
15 54
15 55
15 57
15 58
15 59
16 17
16 18
16 19
16 20
16 21
16 22
16 23
16 25
16 26
16 28
16 29
16 31
16 33
16 34
16 35
16 36
16 37
16 38
16 39
16 40
16 42
16 44
16 46
16 47
16 48
16 49
16 50
16 51
16 52
16 53
16 54
16 55
16 56
16 57
16 58
16 59
17 18
17 19
17 21
17 22
17 23
17 24
17 26
17 27
17 28
17 30
17 32
17 33
17 34
17 35
17 36
17 37
17 38
17 39
17 40
17 43
17 44
17 45
17 46
17 48
17 49
17 50
17 51
17 52
17 53
17 54
17 55
17 57
17 58
17 59
18 19
18 21
18 22
18 23
18 24
18 26
18 27
18 28
18 29
18 30
18 31
18 32
18 36
18 37
18 38
18 41
18 42
18 44
18 45
18 46
18 47
18 48
18 50
18 51
18 53
18 56
18 57
18 58
18 59
19 20
19 22
19 23
19 24
19 25
19 26
19 28
19 29
19 31
19 32
19 33
19 34
19 35
19 36
19 37
19 40
19 42
19 46
19 47
19 48
19 50
19 51
19 52
19 54
19 55
19 57
19 58
20 21
20 22
20 23
20 24
20 25
20 26
20 27
20 28
20 29
20 31
20 32
20 33
20 34
20 36
20 37
20 38
20 39
20 40
20 42
20 43
20 45
20 47
20 48
20 49
20 51
20 52
20 53
20 54
20 55
20 56
20 58
20 59
21 23
21 24
21 25
21 27
21 28
21 29
21 31
21 32
21 33
21 35
21 36
21 37
21 38
21 40
21 41
21 42
21 43
21 44
21 45
21 47
21 48
21 49
21 50
21 52
21 53
21 54
21 55
21 56
21 57
21 58
21 59
22 23
22 24
22 25
22 26
22 28
22 30
22 31
22 32
22 33
22 34
22 36
22 37
22 39
22 40
22 41
22 42
22 43
22 44
22 47
22 48
22 49
22 50
22 51
22 53
22 54
22 55
22 56
22 57
22 58
22 59
23 24
23 25
23 26
23 28
23 29
23 30
23 31
23 32
23 33
23 34
23 35
23 36
23 37
23 38
23 39
23 40
23 41
23 42
23 43
23 44
23 45
23 46
23 47
23 48
23 49
23 50
23 51
23 53
23 54
23 56
23 57
23 58
23 59
24 25
24 27
24 28
24 29
24 30
24 31
24 32
24 33
24 34
24 35
24 36
24 37
24 38
24 39
24 40
24 41
24 42
24 43
24 44
24 45
24 46
24 47
24 50
24 51
24 52
24 53
24 54
24 56
24 57
24 58
24 59
25 26
25 27
25 29
25 30
25 31
25 32
25 33
25 35
25 36
25 37
25 38
25 39
25 40
25 42
25 43
25 45
25 49
25 50
25 51
25 52
25 53
25 54
25 55
25 56
25 57
26 28
26 29
26 30
26 31
26 32
26 33
26 34
26 35
26 36
26 37
26 38
26 39
26 41
26 42
26 43
26 44
26 45
26 46
26 50
26 51
26 52
26 53
26 54
26 56
26 57
26 58
26 59
27 28
27 29
27 30
27 31
27 32
27 34
27 35
27 37
27 38
27 39
27 40
27 41
27 43
27 44
27 45
27 46
27 47
27 48
27 50
27 51
27 53
27 54
27 55
27 57
27 58
27 59
28 30
28 32
28 33
28 34
28 35
28 36
28 37
28 38
28 39
28 40
28 42
28 44
28 45
28 46
28 47
28 48
28 49
28 50
28 51
28 52
28 53
28 54
28 55
28 56
28 57
28 58
28 59
29 31
29 33
29 34
29 35
29 37
29 38
29 39
29 40
29 41
29 42
29 43
29 44
29 45
29 46
29 48
29 52
29 53
29 54
29 55
29 58
29 59
30 31
30 32
30 35
30 36
30 38
30 39
30 41
30 42
30 43
30 44
30 48
30 49
30 50
30 51
30 52
30 53
30 54
30 55
30 57
30 58
30 59
31 32
31 33
31 34
31 36
31 37
31 38
31 39
31 40
31 41
31 42
31 43
31 44
31 45
31 46
31 47
31 48
31 51
31 52
31 53
31 54
31 55
31 57
31 58
31 59
32 33
32 34
32 35
32 36
32 37
32 38
32 39
32 41
32 42
32 44
32 46
32 47
32 48
32 49
32 50
32 52
32 54
32 55
32 57
32 58
32 59
33 34
33 36
33 37
33 38
33 39
33 40
33 41
33 42
33 43
33 44
33 45
33 46
33 47
33 48
33 50
33 51
33 52
33 53
33 55
33 56
33 57
33 58
33 59
34 35
34 37
34 38
34 39
34 41
34 42
34 43
34 44
34 46
34 47
34 48
34 49
34 50
34 51
34 52
34 53
34 54
34 56
34 57
34 58
34 59
35 36
35 38
35 39
35 40
35 41
35 42
35 43
35 44
35 45
35 46
35 47
35 50
35 51
35 52
35 53
35 55
35 56
35 57
35 58
35 59
36 37
36 38
36 39
36 41
36 42
36 43
36 44
36 45
36 46
36 47
36 49
36 50
36 51
36 52
36 53
36 54
36 56
36 57
36 58
36 59
37 38
37 39
37 40
37 41
37 42
37 43
37 44
37 45
37 47
37 48
37 49
37 51
37 52
37 53
37 54
37 55
37 56
37 58
37 59
38 39
38 40
38 41
38 42
38 43
38 44
38 45
38 46
38 47
38 48
38 49
38 50
38 52
38 53
38 54
38 55
38 57
38 58
38 59
39 40
39 41
39 43
39 44
39 45
39 46
39 47
39 48
39 49
39 50
39 53
39 54
39 55
39 58
39 59
40 42
40 44
40 45
40 46
40 47
40 49
40 50
40 51
40 52
40 53
40 54
40 55
40 56
40 57
40 58
40 59
41 42
41 43
41 44
41 45
41 47
41 49
41 50
41 51
41 52
41 53
41 54
41 55
41 56
41 57
41 58
41 59
42 46
42 47
42 49
42 50
42 51
42 52
42 53
42 55
42 56
42 57
42 58
42 59
43 47
43 50
43 51
43 52
43 53
43 54
43 55
43 56
43 57
43 58
43 59
44 45
44 46
44 47
44 48
44 49
44 50
44 51
44 53
44 55
44 57
44 59
45 46
45 47
45 48
45 49
45 51
45 53
45 54
45 55
45 56
45 57
45 59
46 47
46 48
46 49
46 50
46 52
46 53
46 54
46 55
46 56
46 58
46 59
47 48
47 49
47 50
47 51
47 52
47 53
47 54
47 55
47 57
47 58
47 59
48 49
48 50
48 52
48 53
48 54
48 55
48 56
48 57
48 58
48 59
49 50
49 51
49 52
49 53
49 55
49 56
49 57
49 58
49 59
50 52
50 53
50 54
50 55
50 56
50 58
50 59
51 52
51 53
51 55
51 56
51 57
51 59
52 53
52 54
52 55
52 59
53 54
53 56
53 57
53 58
53 59
54 55
54 56
54 57
54 58
54 59
55 56
55 57
56 57
56 58
56 59
57 58
57 59
8 51 43 47 21 2 5 11 55
9 16 6 45 4 34 1 42 46
15 25 38 40 7 53 10 31 27
19 50 12 33 23 36 29 59 35
3 24 56 58 32 28 20 26 17
22 41 14 57 0 30 18 37 48
44 49 13 54 39 52
